ICHARG=1
PREC=N
ENCUT=400
ISYM=0
ALGO=Fast
EDIFF=1.000000e-04
NCORE=32
NELM=200
NELMIN=4
ISMEAR=1
SIGMA=0.2000
NSW=0
LREAL=.TRUE.
LWAVE=F
LCHARG=F
PSTRESS=0
KSPACING=0.5
KGAMMA=.TRUE.
