Cu  O  C  H 
1.0
       10.2247638702         0.0000000000         0.0000000000
        0.0000000000        10.2247638702         0.0000000000
        0.0000000000         0.0000000000        33.6150016785
   Cu    O    C    H
   48    1    1    4
Direct
     0.000000000         0.000000000         0.446229368
     0.250000000         0.000000000         0.446229368
     0.500000000         0.000000000         0.446229368
     0.750000000         0.000000000         0.446229368
     0.000000000         0.250000000         0.446229368
     0.250000000         0.250000000         0.446229368
     0.500000000         0.250000000         0.446229368
     0.750000000         0.250000000         0.446229368
     0.000000000         0.500000000         0.446229368
     0.250000000         0.500000000         0.446229368
     0.500000000         0.500000000         0.446229368
     0.750000000         0.500000000         0.446229368
     0.000000000         0.750000000         0.446229368
     0.250000000         0.750000000         0.446229368
     0.500000000         0.750000000         0.446229368
     0.750000000         0.750000000         0.446229368
     0.125000000         0.125000000         0.500000000
     0.375000000         0.125000000         0.500000000
     0.625000000         0.125000000         0.500000000
     0.875000000         0.125000000         0.500000000
     0.125000000         0.375000000         0.500000000
     0.375000000         0.375000000         0.500000000
     0.625000000         0.375000000         0.500000000
     0.875000000         0.375000000         0.500000000
     0.125000000         0.625000000         0.500000000
     0.375000000         0.625000000         0.500000000
     0.625000000         0.625000000         0.500000000
     0.875000000         0.625000000         0.500000000
     0.125000000         0.875000000         0.500000000
     0.375000000         0.875000000         0.500000000
     0.625000000         0.875000000         0.500000000
     0.875000000         0.875000000         0.500000000
     0.000000000         0.000000000         0.553770602
     0.250000000         0.000000000         0.553770602
     0.500000000         0.000000000         0.553770602
     0.750000000         0.000000000         0.553770602
     0.000000000         0.250000000         0.553770602
     0.250000000         0.250000000         0.553770602
     0.500000000         0.250000000         0.553770602
     0.750000000         0.250000000         0.553770602
     0.000000000         0.500000000         0.553770602
     0.250000000         0.500000000         0.553770602
     0.500000000         0.500000000         0.553770602
     0.750000000         0.500000000         0.553770602
     0.000000000         0.750000000         0.553770602
     0.250000000         0.750000000         0.553770602
     0.500000000         0.750000000         0.553770602
     0.750000000         0.750000000         0.553770602
     0.132924139         0.151875928         0.593637526
     0.047590267         0.121468462         0.628646851
     0.059179723         0.081773356         0.659688652
     0.999220073         0.214597419         0.633050561
     0.002204475         0.030099383         0.614892304
     0.768888414         0.875497401         0.584477901


