Cu  O  C  H                             
   1.00000000000000     
    10.2247640559574791    0.0000000000000000    0.0000000000000000
     0.0000000000000000   10.2247640559574791    0.0000000000000000
     0.0000000000000000    0.0000000000000000   33.6150000000000020
   Cu   O    C    H 
    48     1     1     4
Selective dynamics
Direct
  0.0000000000000000  0.0000000000000000  0.4462293618920157   F   F   F
  0.2500000000000000  0.0000000000000000  0.4462293618920157   F   F   F
  0.5000000000000000  0.0000000000000000  0.4462293618920157   F   F   F
  0.7500000000000000  0.0000000000000000  0.4462293618920157   F   F   F
  0.0000000000000000  0.2500000000000000  0.4462293618920157   F   F   F
  0.2500000000000000  0.2500000000000000  0.4462293618920157   F   F   F
  0.5000000000000000  0.2500000000000000  0.4462293618920157   F   F   F
  0.7500000000000000  0.2500000000000000  0.4462293618920157   F   F   F
  0.0000000000000000  0.5000000000000000  0.4462293618920157   F   F   F
  0.2500000000000000  0.5000000000000000  0.4462293618920157   F   F   F
  0.5000000000000000  0.5000000000000000  0.4462293618920157   F   F   F
  0.7500000000000000  0.5000000000000000  0.4462293618920157   F   F   F
  0.0000000000000000  0.7500000000000000  0.4462293618920157   F   F   F
  0.2500000000000000  0.7500000000000000  0.4462293618920157   F   F   F
  0.5000000000000000  0.7500000000000000  0.4462293618920157   F   F   F
  0.7500000000000000  0.7500000000000000  0.4462293618920157   F   F   F
  0.1250000000000000  0.1250000000000000  0.5000000000000000   F   F   F
  0.3750000000000000  0.1250000000000000  0.5000000000000000   F   F   F
  0.6250000000000000  0.1250000000000000  0.5000000000000000   F   F   F
  0.8750000000000000  0.1250000000000000  0.5000000000000000   F   F   F
  0.1250000000000000  0.3750000000000000  0.5000000000000000   F   F   F
  0.3750000000000000  0.3750000000000000  0.5000000000000000   F   F   F
  0.6250000000000000  0.3750000000000000  0.5000000000000000   F   F   F
  0.8750000000000000  0.3750000000000000  0.5000000000000000   F   F   F
  0.1250000000000000  0.6250000000000000  0.5000000000000000   F   F   F
  0.3750000000000000  0.6250000000000000  0.5000000000000000   F   F   F
  0.6250000000000000  0.6250000000000000  0.5000000000000000   F   F   F
  0.8750000000000000  0.6250000000000000  0.5000000000000000   F   F   F
  0.1250000000000000  0.8750000000000000  0.5000000000000000   F   F   F
  0.3750000000000000  0.8750000000000000  0.5000000000000000   F   F   F
  0.6250000000000000  0.8750000000000000  0.5000000000000000   F   F   F
  0.8750000000000000  0.8750000000000000  0.5000000000000000   F   F   F
  0.0000000000000000  0.0000000000000000  0.5537706381079843   F   F   F
  0.2500000000000000  0.0000000000000000  0.5537706381079843   F   F   F
  0.5000000000000000  0.0000000000000000  0.5537706381079843   F   F   F
  0.7500000000000000  0.0000000000000000  0.5537706381079843   F   F   F
  0.0000000000000000  0.2500000000000000  0.5537706381079843   F   F   F
  0.2500000000000000  0.2500000000000000  0.5537706381079843   F   F   F
  0.5000000000000000  0.2500000000000000  0.5537706381079843   F   F   F
  0.7500000000000000  0.2500000000000000  0.5537706381079843   F   F   F
  0.0000000000000000  0.5000000000000000  0.5537706381079843   F   F   F
  0.2500000000000000  0.5000000000000000  0.5537706381079843   F   F   F
  0.5000000000000000  0.5000000000000000  0.5537706381079843   F   F   F
  0.7500000000000000  0.5000000000000000  0.5537706381079843   F   F   F
  0.0000000000000000  0.7500000000000000  0.5537706381079843   F   F   F
  0.2500000000000000  0.7500000000000000  0.5537706381079843   F   F   F
  0.5000000000000000  0.7500000000000000  0.5537706381079843   F   F   F
  0.7500000000000000  0.7500000000000000  0.5537706381079843   F   F   F
  0.1258259890124653  0.1249999504150239  0.5902549065869360   T   T   T
  0.1252036928557403  0.1249999504150239  0.6332913521640617   T   T   T
  0.2263915062639438  0.1249999504150239  0.6445425133592954   T   T   T
  0.0744508491233118  0.2126763456964585  0.6443776935097556   T   T   T
  0.0744508491233118  0.0373147529744882  0.6443776935097556   T   T   T
  0.6247142147332420  0.1249999504150239  0.5712237229896154   T   T   T
 
  0.00000000E+00  0.00000000E+00  0.00000000E+00
  0.00000000E+00  0.00000000E+00  0.00000000E+00
  0.00000000E+00  0.00000000E+00  0.00000000E+00
  0.00000000E+00  0.00000000E+00  0.00000000E+00
  0.00000000E+00  0.00000000E+00  0.00000000E+00
  0.00000000E+00  0.00000000E+00  0.00000000E+00
  0.00000000E+00  0.00000000E+00  0.00000000E+00
  0.00000000E+00  0.00000000E+00  0.00000000E+00
  0.00000000E+00  0.00000000E+00  0.00000000E+00
  0.00000000E+00  0.00000000E+00  0.00000000E+00
  0.00000000E+00  0.00000000E+00  0.00000000E+00
  0.00000000E+00  0.00000000E+00  0.00000000E+00
  0.00000000E+00  0.00000000E+00  0.00000000E+00
  0.00000000E+00  0.00000000E+00  0.00000000E+00
  0.00000000E+00  0.00000000E+00  0.00000000E+00
  0.00000000E+00  0.00000000E+00  0.00000000E+00
  0.00000000E+00  0.00000000E+00  0.00000000E+00
  0.00000000E+00  0.00000000E+00  0.00000000E+00
  0.00000000E+00  0.00000000E+00  0.00000000E+00
  0.00000000E+00  0.00000000E+00  0.00000000E+00
  0.00000000E+00  0.00000000E+00  0.00000000E+00
  0.00000000E+00  0.00000000E+00  0.00000000E+00
  0.00000000E+00  0.00000000E+00  0.00000000E+00
  0.00000000E+00  0.00000000E+00  0.00000000E+00
  0.00000000E+00  0.00000000E+00  0.00000000E+00
  0.00000000E+00  0.00000000E+00  0.00000000E+00
  0.00000000E+00  0.00000000E+00  0.00000000E+00
  0.00000000E+00  0.00000000E+00  0.00000000E+00
  0.00000000E+00  0.00000000E+00  0.00000000E+00
  0.00000000E+00  0.00000000E+00  0.00000000E+00
  0.00000000E+00  0.00000000E+00  0.00000000E+00
  0.00000000E+00  0.00000000E+00  0.00000000E+00
  0.00000000E+00  0.00000000E+00  0.00000000E+00
  0.00000000E+00  0.00000000E+00  0.00000000E+00
  0.00000000E+00  0.00000000E+00  0.00000000E+00
  0.00000000E+00  0.00000000E+00  0.00000000E+00
  0.00000000E+00  0.00000000E+00  0.00000000E+00
  0.00000000E+00  0.00000000E+00  0.00000000E+00
  0.00000000E+00  0.00000000E+00  0.00000000E+00
  0.00000000E+00  0.00000000E+00  0.00000000E+00
  0.00000000E+00  0.00000000E+00  0.00000000E+00
  0.00000000E+00  0.00000000E+00  0.00000000E+00
  0.00000000E+00  0.00000000E+00  0.00000000E+00
  0.00000000E+00  0.00000000E+00  0.00000000E+00
  0.00000000E+00  0.00000000E+00  0.00000000E+00
  0.00000000E+00  0.00000000E+00  0.00000000E+00
  0.00000000E+00  0.00000000E+00  0.00000000E+00
  0.00000000E+00  0.00000000E+00  0.00000000E+00
  0.00000000E+00  0.00000000E+00  0.00000000E+00
  0.00000000E+00  0.00000000E+00  0.00000000E+00
  0.00000000E+00  0.00000000E+00  0.00000000E+00
  0.00000000E+00  0.00000000E+00  0.00000000E+00
  0.00000000E+00  0.00000000E+00  0.00000000E+00
  0.00000000E+00  0.00000000E+00  0.00000000E+00
