Cu  O  C  H 
 1.0000000000000000
    10.2247640559574791    0.0000000000000000    0.0000000000000000
     0.0000000000000000   10.2247640559574791    0.0000000000000000
     0.0000000000000000    0.0000000000000000   33.6150000000000020
 Cu  O   C   H  
  48   1   1   4
Selective dynamics
Cartesian
  0.0000000000000000  0.0000000000000000 15.0000000000001084   F   F   F
  2.5561910139893698  0.0000000000000000 15.0000000000001084   F   F   F
  5.1123820279787395  0.0000000000000000 15.0000000000001084   F   F   F
  7.6685730419681093  0.0000000000000000 15.0000000000001084   F   F   F
  0.0000000000000000  2.5561910139893698 15.0000000000001084   F   F   F
  2.5561910139893698  2.5561910139893698 15.0000000000001084   F   F   F
  5.1123820279787395  2.5561910139893698 15.0000000000001084   F   F   F
  7.6685730419681093  2.5561910139893698 15.0000000000001084   F   F   F
  0.0000000000000000  5.1123820279787395 15.0000000000001084   F   F   F
  2.5561910139893698  5.1123820279787395 15.0000000000001084   F   F   F
  5.1123820279787395  5.1123820279787395 15.0000000000001084   F   F   F
  7.6685730419681093  5.1123820279787395 15.0000000000001084   F   F   F
  0.0000000000000000  7.6685730419681093 15.0000000000001084   F   F   F
  2.5561910139893698  7.6685730419681093 15.0000000000001084   F   F   F
  5.1123820279787395  7.6685730419681093 15.0000000000001084   F   F   F
  7.6685730419681093  7.6685730419681093 15.0000000000001084   F   F   F
  1.2780955069946849  1.2780955069946849 16.8075000000000010   F   F   F
  3.8342865209840546  1.2780955069946849 16.8075000000000010   F   F   F
  6.3904775349734244  1.2780955069946849 16.8075000000000010   F   F   F
  8.9466685489627942  1.2780955069946849 16.8075000000000010   F   F   F
  1.2780955069946849  3.8342865209840546 16.8075000000000010   F   F   F
  3.8342865209840546  3.8342865209840546 16.8075000000000010   F   F   F
  6.3904775349734244  3.8342865209840546 16.8075000000000010   F   F   F
  8.9466685489627942  3.8342865209840546 16.8075000000000010   F   F   F
  1.2780955069946849  6.3904775349734244 16.8075000000000010   F   F   F
  3.8342865209840546  6.3904775349734244 16.8075000000000010   F   F   F
  6.3904775349734244  6.3904775349734244 16.8075000000000010   F   F   F
  8.9466685489627942  6.3904775349734244 16.8075000000000010   F   F   F
  1.2780955069946849  8.9466685489627942 16.8075000000000010   F   F   F
  3.8342865209840546  8.9466685489627942 16.8075000000000010   F   F   F
  6.3904775349734244  8.9466685489627942 16.8075000000000010   F   F   F
  8.9466685489627942  8.9466685489627942 16.8075000000000010   F   F   F
  0.0000000000000000  0.0000000000000000 18.6149999999998954   F   F   F
  2.5561910139893698  0.0000000000000000 18.6149999999998954   F   F   F
  5.1123820279787395  0.0000000000000000 18.6149999999998954   F   F   F
  7.6685730419681093  0.0000000000000000 18.6149999999998954   F   F   F
  0.0000000000000000  2.5561910139893698 18.6149999999998954   F   F   F
  2.5561910139893698  2.5561910139893698 18.6149999999998954   F   F   F
  5.1123820279787395  2.5561910139893698 18.6149999999998954   F   F   F
  7.6685730419681093  2.5561910139893698 18.6149999999998954   F   F   F
  0.0000000000000000  5.1123820279787395 18.6149999999998954   F   F   F
  2.5561910139893698  5.1123820279787395 18.6149999999998954   F   F   F
  5.1123820279787395  5.1123820279787395 18.6149999999998954   F   F   F
  7.6685730419681093  5.1123820279787395 18.6149999999998954   F   F   F
  0.0000000000000000  7.6685730419681093 18.6149999999998954   F   F   F
  2.5561910139893698  7.6685730419681093 18.6149999999998954   F   F   F
  5.1123820279787395  7.6685730419681093 18.6149999999998954   F   F   F
  7.6685730419681093  7.6685730419681093 18.6149999999998954   F   F   F
  1.1752618973178468  1.2123916362424429 19.9322384672083892   T   T   T
  0.4807952317911935  1.5840500032669889 21.1289861710726399   T   T   T
  0.0762616493171303  0.7225938848415582 21.6950384698485337   T   T   T
  1.2121732976732220  2.0905358837580765 21.7788684646398920   T   T   T
 -0.3764307711603718  2.2548234175936672 20.9028585982700328   T   T   T
  6.4858445957450295  1.6277046720384121 19.3986156669963812   T   T   T
