Cu  O  C  H 
 1.0000000000000000
    10.2247640559574791    0.0000000000000000    0.0000000000000000
     0.0000000000000000   10.2247640559574791    0.0000000000000000
     0.0000000000000000    0.0000000000000000   33.6150000000000020
 Cu  O   C   H  
  48   1   1   4
Selective dynamics
Cartesian
  0.0000000000000000  0.0000000000000000 15.0000000000001084   F   F   F
  2.5561910139893698  0.0000000000000000 15.0000000000001084   F   F   F
  5.1123820279787395  0.0000000000000000 15.0000000000001084   F   F   F
  7.6685730419681093  0.0000000000000000 15.0000000000001084   F   F   F
  0.0000000000000000  2.5561910139893698 15.0000000000001084   F   F   F
  2.5561910139893698  2.5561910139893698 15.0000000000001084   F   F   F
  5.1123820279787395  2.5561910139893698 15.0000000000001084   F   F   F
  7.6685730419681093  2.5561910139893698 15.0000000000001084   F   F   F
  0.0000000000000000  5.1123820279787395 15.0000000000001084   F   F   F
  2.5561910139893698  5.1123820279787395 15.0000000000001084   F   F   F
  5.1123820279787395  5.1123820279787395 15.0000000000001084   F   F   F
  7.6685730419681093  5.1123820279787395 15.0000000000001084   F   F   F
  0.0000000000000000  7.6685730419681093 15.0000000000001084   F   F   F
  2.5561910139893698  7.6685730419681093 15.0000000000001084   F   F   F
  5.1123820279787395  7.6685730419681093 15.0000000000001084   F   F   F
  7.6685730419681093  7.6685730419681093 15.0000000000001084   F   F   F
  1.2780955069946849  1.2780955069946849 16.8075000000000010   F   F   F
  3.8342865209840546  1.2780955069946849 16.8075000000000010   F   F   F
  6.3904775349734244  1.2780955069946849 16.8075000000000010   F   F   F
  8.9466685489627942  1.2780955069946849 16.8075000000000010   F   F   F
  1.2780955069946849  3.8342865209840546 16.8075000000000010   F   F   F
  3.8342865209840546  3.8342865209840546 16.8075000000000010   F   F   F
  6.3904775349734244  3.8342865209840546 16.8075000000000010   F   F   F
  8.9466685489627942  3.8342865209840546 16.8075000000000010   F   F   F
  1.2780955069946849  6.3904775349734244 16.8075000000000010   F   F   F
  3.8342865209840546  6.3904775349734244 16.8075000000000010   F   F   F
  6.3904775349734244  6.3904775349734244 16.8075000000000010   F   F   F
  8.9466685489627942  6.3904775349734244 16.8075000000000010   F   F   F
  1.2780955069946849  8.9466685489627942 16.8075000000000010   F   F   F
  3.8342865209840546  8.9466685489627942 16.8075000000000010   F   F   F
  6.3904775349734244  8.9466685489627942 16.8075000000000010   F   F   F
  8.9466685489627942  8.9466685489627942 16.8075000000000010   F   F   F
  0.0000000000000000  0.0000000000000000 18.6149999999998954   F   F   F
  2.5561910139893698  0.0000000000000000 18.6149999999998954   F   F   F
  5.1123820279787395  0.0000000000000000 18.6149999999998954   F   F   F
  7.6685730419681093  0.0000000000000000 18.6149999999998954   F   F   F
  0.0000000000000000  2.5561910139893698 18.6149999999998954   F   F   F
  2.5561910139893698  2.5561910139893698 18.6149999999998954   F   F   F
  5.1123820279787395  2.5561910139893698 18.6149999999998954   F   F   F
  7.6685730419681093  2.5561910139893698 18.6149999999998954   F   F   F
  0.0000000000000000  5.1123820279787395 18.6149999999998954   F   F   F
  2.5561910139893698  5.1123820279787395 18.6149999999998954   F   F   F
  5.1123820279787395  5.1123820279787395 18.6149999999998954   F   F   F
  7.6685730419681093  5.1123820279787395 18.6149999999998954   F   F   F
  0.0000000000000000  7.6685730419681093 18.6149999999998954   F   F   F
  2.5561910139893698  7.6685730419681093 18.6149999999998954   F   F   F
  5.1123820279787395  7.6685730419681093 18.6149999999998954   F   F   F
  7.6685730419681093  7.6685730419681093 18.6149999999998954   F   F   F
  1.3713173047728708  1.2189261711229507 19.8532644702134284   T   T   T
  1.9580121547633573  0.9730739308957428 21.3549311269401549   T   T   T
  1.9905445269698656  2.0656974123052332 21.4922050512699272   T   T   T
  2.2678779079471441  0.8072596754555817 22.4484050397930801   T   T   T
  1.9088730157282523 -0.1174618743971865 21.1872520444992603   T   T   T
  6.4031120406513296  3.8287020291716032 19.2765257995260981   T   T   T
