Cu  O  C  H 
 1.0000000000000000
    10.2247640559574791    0.0000000000000000    0.0000000000000000
     0.0000000000000000   10.2247640559574791    0.0000000000000000
     0.0000000000000000    0.0000000000000000   33.6150000000000020
 Cu  O   C   H  
  48   1   1   4
Selective dynamics
Cartesian
  0.0000000000000000  0.0000000000000000 15.0000000000001084   F   F   F
  2.5561910139893698  0.0000000000000000 15.0000000000001084   F   F   F
  5.1123820279787395  0.0000000000000000 15.0000000000001084   F   F   F
  7.6685730419681093  0.0000000000000000 15.0000000000001084   F   F   F
  0.0000000000000000  2.5561910139893698 15.0000000000001084   F   F   F
  2.5561910139893698  2.5561910139893698 15.0000000000001084   F   F   F
  5.1123820279787395  2.5561910139893698 15.0000000000001084   F   F   F
  7.6685730419681093  2.5561910139893698 15.0000000000001084   F   F   F
  0.0000000000000000  5.1123820279787395 15.0000000000001084   F   F   F
  2.5561910139893698  5.1123820279787395 15.0000000000001084   F   F   F
  5.1123820279787395  5.1123820279787395 15.0000000000001084   F   F   F
  7.6685730419681093  5.1123820279787395 15.0000000000001084   F   F   F
  0.0000000000000000  7.6685730419681093 15.0000000000001084   F   F   F
  2.5561910139893698  7.6685730419681093 15.0000000000001084   F   F   F
  5.1123820279787395  7.6685730419681093 15.0000000000001084   F   F   F
  7.6685730419681093  7.6685730419681093 15.0000000000001084   F   F   F
  1.2780955069946849  1.2780955069946849 16.8075000000000010   F   F   F
  3.8342865209840546  1.2780955069946849 16.8075000000000010   F   F   F
  6.3904775349734244  1.2780955069946849 16.8075000000000010   F   F   F
  8.9466685489627942  1.2780955069946849 16.8075000000000010   F   F   F
  1.2780955069946849  3.8342865209840546 16.8075000000000010   F   F   F
  3.8342865209840546  3.8342865209840546 16.8075000000000010   F   F   F
  6.3904775349734244  3.8342865209840546 16.8075000000000010   F   F   F
  8.9466685489627942  3.8342865209840546 16.8075000000000010   F   F   F
  1.2780955069946849  6.3904775349734244 16.8075000000000010   F   F   F
  3.8342865209840546  6.3904775349734244 16.8075000000000010   F   F   F
  6.3904775349734244  6.3904775349734244 16.8075000000000010   F   F   F
  8.9466685489627942  6.3904775349734244 16.8075000000000010   F   F   F
  1.2780955069946849  8.9466685489627942 16.8075000000000010   F   F   F
  3.8342865209840546  8.9466685489627942 16.8075000000000010   F   F   F
  6.3904775349734244  8.9466685489627942 16.8075000000000010   F   F   F
  8.9466685489627942  8.9466685489627942 16.8075000000000010   F   F   F
  0.0000000000000000  0.0000000000000000 18.6149999999998954   F   F   F
  2.5561910139893698  0.0000000000000000 18.6149999999998954   F   F   F
  5.1123820279787395  0.0000000000000000 18.6149999999998954   F   F   F
  7.6685730419681093  0.0000000000000000 18.6149999999998954   F   F   F
  0.0000000000000000  2.5561910139893698 18.6149999999998954   F   F   F
  2.5561910139893698  2.5561910139893698 18.6149999999998954   F   F   F
  5.1123820279787395  2.5561910139893698 18.6149999999998954   F   F   F
  7.6685730419681093  2.5561910139893698 18.6149999999998954   F   F   F
  0.0000000000000000  5.1123820279787395 18.6149999999998954   F   F   F
  2.5561910139893698  5.1123820279787395 18.6149999999998954   F   F   F
  5.1123820279787395  5.1123820279787395 18.6149999999998954   F   F   F
  7.6685730419681093  5.1123820279787395 18.6149999999998954   F   F   F
  0.0000000000000000  7.6685730419681093 18.6149999999998954   F   F   F
  2.5561910139893698  7.6685730419681093 18.6149999999998954   F   F   F
  5.1123820279787395  7.6685730419681093 18.6149999999998954   F   F   F
  7.6685730419681093  7.6685730419681093 18.6149999999998954   F   F   F
 -0.3447052364333958  1.2550600465563910 20.3113657555325808   T   T   T
  0.6259221027743732  1.7666083096261669 20.9322425963744330   T   T   T
  2.6073023463011569  1.5365358759970349 20.3879970145782075   T   T   T
  0.5165326337268551  2.2995053519036723 21.8756252540910268   T   T   T
  1.7162849339694282  1.2035520384827940 20.6825576251276892   T   T   T
  6.4079855866367268  1.2732229710991469 19.2748316958944770   T   T   T
